rect_size = array1d(1..1,
    [|3,3|3,3|3,4|4,3|3,5|5,3|3,6|6,3|5,3|3,5|5,4|4,5|8,4|4,8|]);

rect_offset = array1d(1..1, [|0,0 |0,0 |0,0 |0,0 |0,0 |0,0 |0,0 ||0,0 |0,0 |0,0 |0,0
    |0,0 |0,0 |0,0 |]);

shape = array1d(1..14, [{1}, {2}, {3}, {4}, {5}, {6}, {7}, {8}, {9}, {10},
    {11}, {12}, {13}, {14}]);

valid_shapes = array1d(1..7, [{1,2}, {3,4}, {5,6}, {7,8}, {9,10}, {11,12}, {13,14}]);

w = 11;

n = 7;

